Pt slab                                 
   1.00000000000000     
    11.1999999999999993    0.0000000000000000    0.0000000000000000
    -5.5999999999999996    9.6994845223856991    0.0000000000000000
     0.0000000000000000    0.0000000000000000   22.8619042659762997
   Pt
    64
Selective dynamics
Direct
  0.0000000000000000  0.0000000000000000  0.0000000000000000   F   F   F
  0.2500000000000000  0.0000000000000000  0.0000000000000000   F   F   F
  0.5000000000000000  0.0000000000000000  0.0000000000000000   F   F   F
  0.7500000000000000  0.0000000000000000  0.0000000000000000   F   F   F
  0.9999999417187340  0.2499998834374750  0.0000000000000000   F   F   F
  0.2499999417187340  0.2499998834374750  0.0000000000000000   F   F   F
  0.4999999417187340  0.2499998834374750  0.0000000000000000   F   F   F
  0.7499999417187340  0.2499998834374750  0.0000000000000000   F   F   F
  0.9999998834374750  0.4999997668749430  0.0000000000000000   F   F   F
  0.2499998834374750  0.4999997668749430  0.0000000000000000   F   F   F
  0.4999998834374750  0.4999997668749430  0.0000000000000000   F   F   F
  0.7499998834374750  0.4999997668749430  0.0000000000000000   F   F   F
  0.9999998251562090  0.7499996503124180  0.0000000000000000   F   F   F
  0.2499998251562090  0.7499996503124180  0.0000000000000000   F   F   F
  0.4999998251562090  0.7499996503124180  0.0000000000000000   F   F   F
  0.7499998251562090  0.7499996503124180  0.0000000000000000   F   F   F
  0.1666666472395804  0.0833332944791607  0.0999999813402397   F   F   F
  0.4166666472395804  0.0833332944791607  0.0999999813402397   F   F   F
  0.6666666472395804  0.0833332944791607  0.0999999813402397   F   F   F
  0.9166666472395804  0.0833332944791607  0.0999999813402397   F   F   F
  0.1666665889583143  0.3333331779166286  0.0999999813402397   F   F   F
  0.4166665889583143  0.3333331779166286  0.0999999813402397   F   F   F
  0.6666665889583143  0.3333331779166286  0.0999999813402397   F   F   F
  0.9166665889583143  0.3333331779166286  0.0999999813402397   F   F   F
  0.1666665306770554  0.5833330613541037  0.0999999813402397   F   F   F
  0.4166665306770554  0.5833330613541037  0.0999999813402397   F   F   F
  0.6666665306770554  0.5833330613541037  0.0999999813402397   F   F   F
  0.9166665306770554  0.5833330613541037  0.0999999813402397   F   F   F
  0.1666664723957894  0.8333329447915787  0.0999999813402397   F   F   F
  0.4166664723957894  0.8333329447915787  0.0999999813402397   F   F   F
  0.6666664723957894  0.8333329447915787  0.0999999813402397   F   F   F
  0.9166664723957894  0.8333329447915787  0.0999999813402397   F   F   F
  0.0843895494241121  0.1664445010255454  0.1981850194082481   T   T   T
  0.3342478493849529  0.1662825693467599  0.1981131442823809   T   T   T
  0.5843325983178849  0.1662963236565080  0.1981714669051597   T   T   T
  0.8343948434168564  0.1663130661949656  0.1981327213429506   T   T   T
  0.0843976355713541  0.4163284470612064  0.1981983021862844   T   T   T
  0.3343053813194115  0.4163023502331326  0.1981873099175216   T   T   T
  0.5843873048075119  0.4164119995237133  0.1981258418121129   T   T   T
  0.8344311081114376  0.4163941240798831  0.1981556966352719   T   T   T
  0.0844310369603663  0.6662047643107247  0.1982089008834686   T   T   T
  0.3342977426536345  0.6661697223177262  0.1982211414784842   T   T   T
  0.5842093725623014  0.6662116410041399  0.1981739106159748   T   T   T
  0.8343555467061748  0.6663358471865172  0.1981100780593780   T   T   T
  0.0843058543864580  0.9162805121964768  0.1981151125621670   T   T   T
  0.3342712594168845  0.9162124165690402  0.1981370065025843   T   T   T
  0.5843389412903314  0.9162389264250834  0.1981264411774334   T   T   T
  0.8343262743221229  0.9163158635195128  0.1980945008523601   T   T   T
  0.0018921988642662  0.9992514220819683  0.2977691450951084   T   T   T
  0.2518921683474581  0.9991975129899514  0.2977894558428669   T   T   T
  0.5019094866850177  0.9992177740495193  0.2978164219674522   T   T   T
  0.7519204015156391  0.9992645531393753  0.2977833688696365   T   T   T
  0.0019724403645658  0.2493456053677235  0.2979383329641283   T   T   T
  0.2520022518270666  0.2492850989797844  0.2979274138656247   T   T   T
  0.5019014500188834  0.2492797737153524  0.2977934785300423   T   T   T
  0.7520304845117866  0.2493145141269602  0.2978326683583477   T   T   T
  0.0020523297639757  0.4992651091387316  0.2979884859583448   T   T   T
  0.2519930457962211  0.4992320550570059  0.2979665974215325   T   T   T
  0.5019182901309193  0.4991932840509156  0.2979264104087281   T   T   T
  0.7520106370867199  0.4992999066329949  0.2977970825552466   T   T   T
  0.0020093366199762  0.7492420369034070  0.2978364721274985   T   T   T
  0.2520408577463473  0.7492624174626796  0.2979702442503197   T   T   T
  0.5018913148731197  0.7492390562267093  0.2979246391456171   T   T   T
  0.7518803598464329  0.7491890993239682  0.2977636951402720   T   T   T
 
  0.00000000E+00  0.00000000E+00  0.00000000E+00
  0.00000000E+00  0.00000000E+00  0.00000000E+00
  0.00000000E+00  0.00000000E+00  0.00000000E+00
  0.00000000E+00  0.00000000E+00  0.00000000E+00
  0.00000000E+00  0.00000000E+00  0.00000000E+00
  0.00000000E+00  0.00000000E+00  0.00000000E+00
  0.00000000E+00  0.00000000E+00  0.00000000E+00
  0.00000000E+00  0.00000000E+00  0.00000000E+00
  0.00000000E+00  0.00000000E+00  0.00000000E+00
  0.00000000E+00  0.00000000E+00  0.00000000E+00
  0.00000000E+00  0.00000000E+00  0.00000000E+00
  0.00000000E+00  0.00000000E+00  0.00000000E+00
  0.00000000E+00  0.00000000E+00  0.00000000E+00
  0.00000000E+00  0.00000000E+00  0.00000000E+00
  0.00000000E+00  0.00000000E+00  0.00000000E+00
  0.00000000E+00  0.00000000E+00  0.00000000E+00
  0.00000000E+00  0.00000000E+00  0.00000000E+00
  0.00000000E+00  0.00000000E+00  0.00000000E+00
  0.00000000E+00  0.00000000E+00  0.00000000E+00
  0.00000000E+00  0.00000000E+00  0.00000000E+00
  0.00000000E+00  0.00000000E+00  0.00000000E+00
  0.00000000E+00  0.00000000E+00  0.00000000E+00
  0.00000000E+00  0.00000000E+00  0.00000000E+00
  0.00000000E+00  0.00000000E+00  0.00000000E+00
  0.00000000E+00  0.00000000E+00  0.00000000E+00
  0.00000000E+00  0.00000000E+00  0.00000000E+00
  0.00000000E+00  0.00000000E+00  0.00000000E+00
  0.00000000E+00  0.00000000E+00  0.00000000E+00
  0.00000000E+00  0.00000000E+00  0.00000000E+00
  0.00000000E+00  0.00000000E+00  0.00000000E+00
  0.00000000E+00  0.00000000E+00  0.00000000E+00
  0.00000000E+00  0.00000000E+00  0.00000000E+00
  0.00000000E+00  0.00000000E+00  0.00000000E+00
  0.00000000E+00  0.00000000E+00  0.00000000E+00
  0.00000000E+00  0.00000000E+00  0.00000000E+00
  0.00000000E+00  0.00000000E+00  0.00000000E+00
  0.00000000E+00  0.00000000E+00  0.00000000E+00
  0.00000000E+00  0.00000000E+00  0.00000000E+00
  0.00000000E+00  0.00000000E+00  0.00000000E+00
  0.00000000E+00  0.00000000E+00  0.00000000E+00
  0.00000000E+00  0.00000000E+00  0.00000000E+00
  0.00000000E+00  0.00000000E+00  0.00000000E+00
  0.00000000E+00  0.00000000E+00  0.00000000E+00
  0.00000000E+00  0.00000000E+00  0.00000000E+00
  0.00000000E+00  0.00000000E+00  0.00000000E+00
  0.00000000E+00  0.00000000E+00  0.00000000E+00
  0.00000000E+00  0.00000000E+00  0.00000000E+00
  0.00000000E+00  0.00000000E+00  0.00000000E+00
  0.00000000E+00  0.00000000E+00  0.00000000E+00
  0.00000000E+00  0.00000000E+00  0.00000000E+00
  0.00000000E+00  0.00000000E+00  0.00000000E+00
  0.00000000E+00  0.00000000E+00  0.00000000E+00
  0.00000000E+00  0.00000000E+00  0.00000000E+00
  0.00000000E+00  0.00000000E+00  0.00000000E+00
  0.00000000E+00  0.00000000E+00  0.00000000E+00
  0.00000000E+00  0.00000000E+00  0.00000000E+00
  0.00000000E+00  0.00000000E+00  0.00000000E+00
  0.00000000E+00  0.00000000E+00  0.00000000E+00
  0.00000000E+00  0.00000000E+00  0.00000000E+00
  0.00000000E+00  0.00000000E+00  0.00000000E+00
  0.00000000E+00  0.00000000E+00  0.00000000E+00
  0.00000000E+00  0.00000000E+00  0.00000000E+00
  0.00000000E+00  0.00000000E+00  0.00000000E+00
  0.00000000E+00  0.00000000E+00  0.00000000E+00
