water on Pt slab                       
   1.00000000000000     
    11.1999999999999993    0.0000000000000000    0.0000000000000000
    -5.5999999999999996    9.6994845223856991    0.0000000000000000
     0.0000000000000000    0.0000000000000000   22.8619042659762997
   Pt   O    H 
    64     1     2
Selective dynamics
Direct
  0.0000000000000000  0.0000000000000000  0.0000000000000000   F   F   F
  0.2500000000000000  0.0000000000000000  0.0000000000000000   F   F   F
  0.5000000000000000  0.0000000000000000  0.0000000000000000   F   F   F
  0.7500000000000000  0.0000000000000000  0.0000000000000000   F   F   F
  0.9999999417187340  0.2499998834374750  0.0000000000000000   F   F   F
  0.2499999417187340  0.2499998834374750  0.0000000000000000   F   F   F
  0.4999999417187340  0.2499998834374750  0.0000000000000000   F   F   F
  0.7499999417187340  0.2499998834374750  0.0000000000000000   F   F   F
  0.9999998834374750  0.4999997668749430  0.0000000000000000   F   F   F
  0.2499998834374750  0.4999997668749430  0.0000000000000000   F   F   F
  0.4999998834374750  0.4999997668749430  0.0000000000000000   F   F   F
  0.7499998834374750  0.4999997668749430  0.0000000000000000   F   F   F
  0.9999998251562090  0.7499996503124180  0.0000000000000000   F   F   F
  0.2499998251562090  0.7499996503124180  0.0000000000000000   F   F   F
  0.4999998251562090  0.7499996503124180  0.0000000000000000   F   F   F
  0.7499998251562090  0.7499996503124180  0.0000000000000000   F   F   F
  0.1666666472395804  0.0833332944791607  0.0999999813402397   F   F   F
  0.4166666472395804  0.0833332944791607  0.0999999813402397   F   F   F
  0.6666666472395804  0.0833332944791607  0.0999999813402397   F   F   F
  0.9166666472395804  0.0833332944791607  0.0999999813402397   F   F   F
  0.1666665889583143  0.3333331779166286  0.0999999813402397   F   F   F
  0.4166665889583143  0.3333331779166286  0.0999999813402397   F   F   F
  0.6666665889583143  0.3333331779166286  0.0999999813402397   F   F   F
  0.9166665889583143  0.3333331779166286  0.0999999813402397   F   F   F
  0.1666665306770554  0.5833330613541037  0.0999999813402397   F   F   F
  0.4166665306770554  0.5833330613541037  0.0999999813402397   F   F   F
  0.6666665306770554  0.5833330613541037  0.0999999813402397   F   F   F
  0.9166665306770554  0.5833330613541037  0.0999999813402397   F   F   F
  0.1666664723957894  0.8333329447915787  0.0999999813402397   F   F   F
  0.4166664723957894  0.8333329447915787  0.0999999813402397   F   F   F
  0.6666664723957894  0.8333329447915787  0.0999999813402397   F   F   F
  0.9166664723957894  0.8333329447915787  0.0999999813402397   F   F   F
  0.0840534896373014  0.1663492349539985  0.1982270572075156   T   T   T
  0.3342166234568298  0.1667023425698595  0.1980020401073297   T   T   T
  0.5840003790273939  0.1664296127104483  0.1982130133697672   T   T   T
  0.8341176314864681  0.1666709052689438  0.1979907091694763   T   T   T
  0.0851760235033653  0.4170787443970619  0.1988395717136198   T   T   T
  0.3335057030737125  0.4169923837117001  0.1989300839725123   T   T   T
  0.5837687642146639  0.4163441451074398  0.1979911015694302   T   T   T
  0.8341225732888760  0.4163598086233722  0.1980175368223578   T   T   T
  0.0840992416015226  0.6665939748909063  0.1982644771967756   T   T   T
  0.3334594320633120  0.6654068503435807  0.1989464847550707   T   T   T
  0.5840853740335278  0.6664863138358849  0.1982787859118618   T   T   T
  0.8339752816173019  0.6663308535153191  0.1981171028593838   T   T   T
  0.0842702603986489  0.9165572801156430  0.1981076487547389   T   T   T
  0.3342017616344830  0.9164161867690348  0.1980271588979715   T   T   T
  0.5837065954090819  0.9162585495957971  0.1979870320157848   T   T   T
  0.8339723382881890  0.9165042201992576  0.1980761934702833   T   T   T
  0.0011875367415642  0.9991741310329677  0.2978976093274751   T   T   T
  0.2515050272336537  0.9996612467942547  0.2978782838265171   T   T   T
  0.5015153777053066  0.9996230683428213  0.2979206050882977   T   T   T
  0.7511690123337065  0.9993531322183236  0.2978436727351628   T   T   T
  0.0003234157562281  0.2482336714448715  0.2977747837540957   T   T   T
  0.2511421248529718  0.2484714274156809  0.2979481845684064   T   T   T
  0.5013824522957280  0.2495968116395297  0.2979106407632161   T   T   T
  0.7512900179404546  0.2494371316049399  0.2978738061015440   T   T   T
  0.0004631812685961  0.4995985847964174  0.2978389406593588   T   T   T
  0.2508727180205344  0.4993519562054433  0.3008180320282476   T   T   T
  0.5024796311098512  0.4997849420098726  0.2979322335180318   T   T   T
  0.7513024248249884  0.4994738122378243  0.2978674765402390   T   T   T
  0.0013360836752251  0.7496699413081679  0.2979066441589233   T   T   T
  0.2514771219507183  0.7505628800800287  0.2979579200561793   T   T   T
  0.5024005338026971  0.7503863121216187  0.2980481279202385   T   T   T
  0.7516308364678019  0.7496809556476216  0.2979531440655522   T   T   T
  0.2577385804208419  0.4951021114925211  0.4112092643446061   F   F   F
  0.2755945434352062  0.4182228561567208  0.4142393800239756   T   T   T
  0.3480374081923862  0.5779068625833492  0.4161244968507937   T   T   T
 
  0.00000000E+00  0.00000000E+00  0.00000000E+00
  0.00000000E+00  0.00000000E+00  0.00000000E+00
  0.00000000E+00  0.00000000E+00  0.00000000E+00
  0.00000000E+00  0.00000000E+00  0.00000000E+00
  0.00000000E+00  0.00000000E+00  0.00000000E+00
  0.00000000E+00  0.00000000E+00  0.00000000E+00
  0.00000000E+00  0.00000000E+00  0.00000000E+00
  0.00000000E+00  0.00000000E+00  0.00000000E+00
  0.00000000E+00  0.00000000E+00  0.00000000E+00
  0.00000000E+00  0.00000000E+00  0.00000000E+00
  0.00000000E+00  0.00000000E+00  0.00000000E+00
  0.00000000E+00  0.00000000E+00  0.00000000E+00
  0.00000000E+00  0.00000000E+00  0.00000000E+00
  0.00000000E+00  0.00000000E+00  0.00000000E+00
  0.00000000E+00  0.00000000E+00  0.00000000E+00
  0.00000000E+00  0.00000000E+00  0.00000000E+00
  0.00000000E+00  0.00000000E+00  0.00000000E+00
  0.00000000E+00  0.00000000E+00  0.00000000E+00
  0.00000000E+00  0.00000000E+00  0.00000000E+00
  0.00000000E+00  0.00000000E+00  0.00000000E+00
  0.00000000E+00  0.00000000E+00  0.00000000E+00
  0.00000000E+00  0.00000000E+00  0.00000000E+00
  0.00000000E+00  0.00000000E+00  0.00000000E+00
  0.00000000E+00  0.00000000E+00  0.00000000E+00
  0.00000000E+00  0.00000000E+00  0.00000000E+00
  0.00000000E+00  0.00000000E+00  0.00000000E+00
  0.00000000E+00  0.00000000E+00  0.00000000E+00
  0.00000000E+00  0.00000000E+00  0.00000000E+00
  0.00000000E+00  0.00000000E+00  0.00000000E+00
  0.00000000E+00  0.00000000E+00  0.00000000E+00
  0.00000000E+00  0.00000000E+00  0.00000000E+00
  0.00000000E+00  0.00000000E+00  0.00000000E+00
  0.00000000E+00  0.00000000E+00  0.00000000E+00
  0.00000000E+00  0.00000000E+00  0.00000000E+00
  0.00000000E+00  0.00000000E+00  0.00000000E+00
  0.00000000E+00  0.00000000E+00  0.00000000E+00
  0.00000000E+00  0.00000000E+00  0.00000000E+00
  0.00000000E+00  0.00000000E+00  0.00000000E+00
  0.00000000E+00  0.00000000E+00  0.00000000E+00
  0.00000000E+00  0.00000000E+00  0.00000000E+00
  0.00000000E+00  0.00000000E+00  0.00000000E+00
  0.00000000E+00  0.00000000E+00  0.00000000E+00
  0.00000000E+00  0.00000000E+00  0.00000000E+00
  0.00000000E+00  0.00000000E+00  0.00000000E+00
  0.00000000E+00  0.00000000E+00  0.00000000E+00
  0.00000000E+00  0.00000000E+00  0.00000000E+00
  0.00000000E+00  0.00000000E+00  0.00000000E+00
  0.00000000E+00  0.00000000E+00  0.00000000E+00
  0.00000000E+00  0.00000000E+00  0.00000000E+00
  0.00000000E+00  0.00000000E+00  0.00000000E+00
  0.00000000E+00  0.00000000E+00  0.00000000E+00
  0.00000000E+00  0.00000000E+00  0.00000000E+00
  0.00000000E+00  0.00000000E+00  0.00000000E+00
  0.00000000E+00  0.00000000E+00  0.00000000E+00
  0.00000000E+00  0.00000000E+00  0.00000000E+00
  0.00000000E+00  0.00000000E+00  0.00000000E+00
  0.00000000E+00  0.00000000E+00  0.00000000E+00
  0.00000000E+00  0.00000000E+00  0.00000000E+00
  0.00000000E+00  0.00000000E+00  0.00000000E+00
  0.00000000E+00  0.00000000E+00  0.00000000E+00
  0.00000000E+00  0.00000000E+00  0.00000000E+00
  0.00000000E+00  0.00000000E+00  0.00000000E+00
  0.00000000E+00  0.00000000E+00  0.00000000E+00
  0.00000000E+00  0.00000000E+00  0.00000000E+00
  0.00000000E+00  0.00000000E+00  0.00000000E+00
  0.00000000E+00  0.00000000E+00  0.00000000E+00
  0.00000000E+00  0.00000000E+00  0.00000000E+00
