water                                   
   1.00000000000000     
    11.1999999999999993    0.0000000000000000    0.0000000000000000
    -5.5999999999999996    9.6994845223856991    0.0000000000000000
     0.0000000000000000    0.0000000000000000   22.8619042659762997
   O    H 
     1     2
Selective dynamics
Direct
  0.2577385804208419  0.4951021114925211  0.6095643183391459   T   T   T
  0.2683255818248398  0.4169862665427146  0.6218885939704251   T   T   T
  0.3406738412479697  0.5778993884348793  0.6234299662513081   T   T   T
 
  0.00000000E+00  0.00000000E+00  0.00000000E+00
  0.00000000E+00  0.00000000E+00  0.00000000E+00
  0.00000000E+00  0.00000000E+00  0.00000000E+00
